100 54282

 117 878
666 162
937 380
803 993
575 87
244 55
537 476
602 800
75 178
806 391
386 349
903 8
210 833
475 313
418 759
347 835
529 984
640 983
939 443
955 767
876 328
763 54
179 761
182 239
664 229
25 579
967 51
180 609
710 604
501 264
856 418
161 803
177 96
285 88
63 78
662 288
666 120
156 814
882 491
469 912
49 452
967 500
849 165
84 182
361 469
689 910
148 735
630 823
342 944
476 978
63 7
701 330
360 775
561 673
327 151
769 85
736 147
141 624
990 381
215 915
435 548
891 285
952 700
723 82
318 514
32 897
670 815
285 709
305 916
429 523
477 746
286 386
144 707
424 471
19 119
18 396
769 532
590 261
371 805
175 934
194 256
502 734
988 905
113 226
114 53
222 940
678 867
947 500
831 506
644 854
897 364
264 280
925 593
55 714
871 158
643 632
800 59
778 727
458 128
979 736
